
Gurobi 12.0.2 (win64) logging started Sat Nov  1 18:46:11 2025

Set parameter LogFile to value "resultados DATA_1_n30m05b2d1\instancia_2_log.txt"
Set parameter TimeLimit to value 360
Gurobi Optimizer version 12.0.2 build v12.0.2rc0 (win64 - Windows 10.0 (19045.2))

CPU model: Intel(R) Core(TM) i5-6300U CPU @ 2.40GHz, instruction set [SSE2|AVX|AVX2]
Thread count: 2 physical cores, 4 logical processors, using up to 4 threads

Non-default parameters:
TimeLimit  360

Optimize a model with 4625 rows, 9347 columns and 1790157 nonzeros
Model fingerprint: 0x220b9828
Variable types: 0 continuous, 9347 integer (9347 binary)
Coefficient statistics:
  Matrix range     [1e+00, 1e+00]
  Objective range  [1e-02, 8e-02]
  Bounds range     [1e+00, 1e+00]
  RHS range        [1e+00, 3e+01]
Found heuristic solution: objective 0.6398519
Presolve removed 241 rows and 5234 columns (presolve time = 5s)...
Presolve removed 241 rows and 5234 columns
Presolve time: 7.96s
Presolved: 4384 rows, 4113 columns, 684227 nonzeros
Found heuristic solution: objective 0.2167407
Variable types: 0 continuous, 4113 integer (4113 binary)
Found heuristic solution: objective 0.6896296

Root simplex log...

Iteration    Objective       Primal Inf.    Dual Inf.      Time
       0    4.2645556e+00   1.319100e+04   0.000000e+00      8s
    2453    9.7259072e-01   1.306213e+04   0.000000e+00     10s
    8093    9.1977844e-01   1.292062e+03   0.000000e+00     15s
   12773    9.1289872e-01   2.024553e+02   0.000000e+00     20s
   17023    9.1116907e-01   6.620551e+03   0.000000e+00     25s
   18456    9.1132458e-01   0.000000e+00   0.000000e+00     27s

Root relaxation: objective 9.113246e-01, 18456 iterations, 18.98 seconds (22.04 work units)

    Nodes    |    Current Node    |     Objective Bounds      |     Work
 Expl Unexpl |  Obj  Depth IntInf | Incumbent    BestBd   Gap | It/Node Time

     0     0    0.91132    0  249    0.68963    0.91132  32.1%     -   31s
H    0     0                       0.7093333    0.91132  28.5%     -   31s
H    0     0                       0.7908519    0.91132  15.2%     -   31s
H    0     0                       0.7939630    0.91132  14.8%     -   31s
H    0     0                       0.7981111    0.91132  14.2%     -   32s
H    0     0                       0.8074444    0.91132  12.9%     -   32s
H    0     0                       0.8126296    0.91132  12.1%     -   32s
H    0     0                       0.8281852    0.91132  10.0%     -   32s
     0     0    0.91132    0  381    0.82819    0.91132  10.0%     -   36s
H    0     0                       0.8506296    0.91132  7.14%     -   37s
H    0     0                       0.8624074    0.91132  5.67%     -   37s
H    0     0                       0.8845185    0.91132  3.03%     -   38s
H    0     0                       0.8904074    0.91132  2.35%     -   40s
     0     0    0.91132    0  389    0.89041    0.91132  2.35%     -   42s
     0     0    0.91132    0  281    0.89041    0.91132  2.35%     -   48s
     0     0    0.91132    0  295    0.89041    0.91132  2.35%     -   49s
     0     0    0.91132    0  360    0.89041    0.91132  2.35%     -   64s
     0     0    0.91132    0  370    0.89041    0.91132  2.35%     -   71s
     0     0    0.91132    0  280    0.89041    0.91132  2.35%     -   75s
     0     0    0.91132    0  287    0.89041    0.91132  2.35%     -   77s
     0     0    0.91132    0  215    0.89041    0.91132  2.35%     -   78s
     0     2    0.91132    0  215    0.89041    0.91132  2.35%     -  128s
     1     4    0.91132    1  226    0.89041    0.91132  2.35%   718  136s
     5    14    0.91132    3  471    0.89041    0.91132  2.35%  1936  141s
    13    16    0.91132    6  452    0.89041    0.91132  2.35%  1108  153s
    15    30    0.90942    6  231    0.89041    0.91132  2.35%  1376  159s
    29    34    0.90476    7  116    0.89041    0.91132  2.35%  1344  167s
    51    58    0.90476   15  103    0.89041    0.91132  2.35%   957  175s
H   58    60                       0.8904074    0.91132  2.35%   976  177s
    68    75    0.90404   19  141    0.89041    0.91132  2.35%   920  180s
    85    88    0.90401   21  163    0.89041    0.91132  2.35%   861  187s
    95   109    0.90394   24  138    0.89041    0.91132  2.35%   786  191s
H  113   117                       0.8904074    0.91132  2.35%   702  193s
   118   132    0.90375   31  100    0.89041    0.91132  2.35%   684  196s
   149   157    0.90353   37  125    0.89041    0.91132  2.35%   572  201s
   169   178    0.90270   40  182    0.89041    0.91132  2.35%   541  206s
   193   206    0.90222   48  155    0.89041    0.91132  2.35%   491  210s
   205   225    0.89383   49  209    0.89041    0.91132  2.35%   503  217s
   224   228    0.90222   50  156    0.89041    0.91132  2.35%   469  221s
   227   231    0.90210   51  205    0.89041    0.91132  2.35%   483  225s
H  234   236                       0.8904074    0.91132  2.35%   494  228s
   235   261    0.90168   56  301    0.89041    0.91132  2.35%   500  231s
   260   288    0.90167   57  345    0.89041    0.91132  2.35%   461  235s
   302   331    0.90161   60  472    0.89041    0.91132  2.35%   426  240s
   369   402    0.90159   62  156    0.89041    0.91132  2.35%   358  246s
   409   411    0.90156   65  445    0.89041    0.91132  2.35%   331  256s
   424   415    0.90156   66  445    0.89041    0.91132  2.35%   320  265s
   440   419    0.90156   68  409    0.89041    0.91132  2.35%   338  274s
   442   421    0.90156   69  409    0.89041    0.91132  2.35%   343  284s
   444   428    0.90156   70  415    0.89041    0.91132  2.35%   354  292s
   451   435    0.90153   76  327    0.89041    0.91132  2.35%   360  303s
   458   451    0.90150   82  439    0.89041    0.91132  2.35%   368  314s
   474   456    0.90149   97  395    0.89041    0.91132  2.35%   371  318s
   479   458    0.90149  101  387    0.89041    0.91132  2.35%   372  329s
   481   460    0.90149  102  386    0.89041    0.91132  2.35%   379  338s
   483   462    0.90147  103  482    0.89041    0.91132  2.35%   388  344s
   485   464    0.90146  104  474    0.89041    0.91132  2.35%   393  348s
   487   466    0.90146  105  505    0.89041    0.91132  2.35%   394  352s
   489   468    0.90146  106  476    0.89041    0.91132  2.35%   394  357s
   491   470    0.90146  107  392    0.89041    0.91132  2.35%   396  360s

Cutting planes:
  Clique: 1
  Zero half: 2

Explored 493 nodes (234167 simplex iterations) in 360.06 seconds (475.53 work units)
Thread count was 4 (of 4 available processors)

Solution count 10: 0.890407 0.890407 0.890407 ... 0.807444

Time limit reached
Best objective 8.904074252838e-01, best bound 9.113245791246e-01, gap 2.3492%
